100	1
0 43
0 41
0 57
0 49
0 52
0 64
0 52
0 46
0 42
0 48
0 51
0 54
0 46
0 47
0 47
0 52
0 48
0 44
0 43
0 50
0 49
0 50
0 39
0 45
0 59
0 54
0 43
0 48
0 52
0 46
0 55
0 42
0 46
0 52
0 38
0 45
0 43
0 48
0 50
0 50
0 49
0 54
0 52
0 53
0 40
0 56
0 57
0 56
0 46
0 53
0 57
0 48
0 39
0 50
0 58
0 42
0 48
0 52
0 59
0 46
0 54
0 46
0 58
0 50
0 53
0 54
0 55
0 51
0 51
0 49
0 57
0 44
0 52
0 47
0 45
0 48
0 53
0 37
0 58
0 55
0 59
0 51
0 45
0 65
0 55
0 44
0 54
0 43
0 42
0 49
0 51
0 59
0 49
0 48
0 56
0 51
0 57
0 45
0 47
0 48
